(declare-const |K:158:159:166:173:182| Int)
(declare-const |__VERIFIER_assert__cond___15':143:161:168:175:184| Int)
(declare-const __VERIFIER_assert__cond___16 Int)
(declare-const |havoc:3:58:181| Int)
(declare-const havoc Int)
(declare-const |main____CPAchecker_TMP_0':141:162:169:176:185| Int)
(declare-const |havoc:9:59:138:180:189| Int)
(declare-const |main____CPAchecker_TMP_0___0':142:165:172:179:188| Int)
(declare-const |main__t':140:160:167:174:183| Int)
(declare-const |__tmp_383_0':139:163:170:177:186| Int)
(declare-const |__VERIFIER_assert__cond___16':144:164:171:178:187| Int)
(declare-const main____CPAchecker_TMP_0___0 Int)
(declare-const __VERIFIER_assert__cond___15 Int)
(assert (and (<= (+ (- havoc) 1) 0) (not (= (+ (- havoc) 1) 0))
               (= |havoc:3:58:181| 0)
               (not (= (ite (<= (+ (- havoc) 1) 0) 1 0) 0))
               (or (not (<= (- |K:158:159:166:173:182|) 0))
                     (= (+ |main__t':140:160:167:174:183|
                             (- |K:158:159:166:173:182|)) 0))
               (or (not (and (<= (- |K:158:159:166:173:182|) 0)
                               (<= |K:158:159:166:173:182| 0)))
                     (= (+ (- __VERIFIER_assert__cond___15)
                             |__VERIFIER_assert__cond___15':143:161:168:175:184|) 0))
               (or (not (<= (+ (- |K:158:159:166:173:182|) 1) 0))
                     (= (+ |__VERIFIER_assert__cond___15':143:161:168:175:184|
                             -1) 0))
               (or (not (and (<= (- |K:158:159:166:173:182|) 0)
                               (<= |K:158:159:166:173:182| 0)))
                     (= (+ |main____CPAchecker_TMP_0':141:162:169:176:185|
                             (- |havoc:3:58:181|)) 0))
               (or (not (<= (+ (- |K:158:159:166:173:182|) 1) 0))
                     (= |main____CPAchecker_TMP_0':141:162:169:176:185| 0))
               (or (not (and (<= (- |K:158:159:166:173:182|) 0)
                               (<= |K:158:159:166:173:182| 0)))
                     (= (+ |__tmp_383_0':139:163:170:177:186|
                             (- |havoc:3:58:181|)) 0))
               (or (not (<= (+ (- |K:158:159:166:173:182|) 1) 0))
                     (= |__tmp_383_0':139:163:170:177:186| 0))
               (or (not (and (<= (- |K:158:159:166:173:182|) 0)
                               (<= |K:158:159:166:173:182| 0)))
                     (= (+ (- __VERIFIER_assert__cond___16)
                             |__VERIFIER_assert__cond___16':144:164:171:178:187|) 0))
               (or (not (<= (+ (- |K:158:159:166:173:182|) 1) 0))
                     (= (+ |__VERIFIER_assert__cond___16':144:164:171:178:187|
                             -1) 0))
               (or (not (and (<= (- |K:158:159:166:173:182|) 0)
                               (<= |K:158:159:166:173:182| 0)))
                     (= (+ (- main____CPAchecker_TMP_0___0)
                             |main____CPAchecker_TMP_0___0':142:165:172:179:188|) 0))
               (or (not (<= (+ (- |K:158:159:166:173:182|) 1) 0))
                     (= |main____CPAchecker_TMP_0___0':142:165:172:179:188| 0))
               (or (and (= |K:158:159:166:173:182| 0)
                          (= (+ __VERIFIER_assert__cond___16
                                  (- |__VERIFIER_assert__cond___16':144:164:171:178:187|)) 0)
                          (= (+ __VERIFIER_assert__cond___15
                                  (- |__VERIFIER_assert__cond___15':143:161:168:175:184|)) 0)
                          (= (+ main____CPAchecker_TMP_0___0
                                  (- |main____CPAchecker_TMP_0___0':142:165:172:179:188|)) 0)
                          (= (+ (- |main____CPAchecker_TMP_0':141:162:169:176:185|)
                                  |havoc:3:58:181|) 0)
                          (= (- |main__t':140:160:167:174:183|) 0)
                          (= (+ (- |__tmp_383_0':139:163:170:177:186|)
                                  |havoc:3:58:181|) 0))
                     (and (<= (+ (- |K:158:159:166:173:182|) 1) 0)
                            (= |havoc:3:58:181| 0) (= |havoc:3:58:181| 0)
                            (<= (+ (- havoc) 3) 0)
                            (= (+ |__VERIFIER_assert__cond___16':144:164:171:178:187|
                                    -1) 0)
                            (= (+ |__VERIFIER_assert__cond___15':143:161:168:175:184|
                                    -1) 0)
                            (= |main____CPAchecker_TMP_0':141:162:169:176:185| 0)
                            (= |main____CPAchecker_TMP_0___0':142:165:172:179:188| 0)
                            (= |__tmp_383_0':139:163:170:177:186| 0)
                            (<= (+ |main__t':140:160:167:174:183| (- havoc) 2) 0)
                            (<= (+ (- |main__t':140:160:167:174:183|) 1) 0)))
               (<= (- |K:158:159:166:173:182|) 0)
               (= |__tmp_383_0':139:163:170:177:186| 0)
               (= |main____CPAchecker_TMP_0':141:162:169:176:185| 0)
               (<= (- |main__t':140:160:167:174:183|) 0)
               (< (+ (- havoc) 1) 0) (= |__tmp_383_0':139:163:170:177:186| 0)
               (= |main____CPAchecker_TMP_0':141:162:169:176:185| 0)
               (not (= (+ |main__t':140:160:167:174:183| (- havoc) 2) 0))
               (= |havoc:9:59:138:180:189| 0)
               (not (= (ite (<= (+ (- |main__t':140:160:167:174:183|) -1) 0)
                            1 0) 0))
               (= (ite (<= (+ |main__t':140:160:167:174:183| (- havoc) 2) 0)
                       1 0) 0)))
(check-sat)
